131 156 7 61 198 22 179 178 122 185 146 
182 12 59 173 144 105 87 115 82 66 161 
142 194 147 27 129 71 113 11 174 120 187 
128 53 94 157 114 126 154 24 108 117 
162 197 35 25 46 73 63 77 193 170 149 93 19 39 110 102 
163 104 164 138 62 137 123 127 8 34 15 167 
4 37 9 195 29 85 91 70 48 74 109 
6 14 188 139 21 17 76 141 183 184 
57 133 40 190 51 95 90 107 125 148 
84 199 118 69 176 192 50 60 1 67 36 
140 196 3 136 150 145 116 106 160 124 
172 181 159 20 135 134 92 33 10 
45 65 99 151 112 189 101 191 13 83 
153 68 43 130 58 143 55 2 64 
200 132 78 72 44 80 26 97 121 175 
54 100 16 119 52 86 41 81 158 75 
47 49 18 111 79 96 30 
28 56 38 23 32 166 
88 171 186 
152 169 180 
155 89 
31 98 
165 177 168 
42 5 
103 

